Figure: medium_4
File Number: 20
Nodes: 100
Edges: 2527
Max Generations: 1000
Population Size: 100
Mutation Rate: 0.01
Colors Used: 23
Runtime: 7.29

Generation,Average Fitness,Best Fitness
0,114.55,91
1,109.99,88
2,106.11,88
3,103.81,88
4,101.8,87
5,99.83,81
6,97.12,79
7,96.7,79
8,95.64,79
9,93.44,75
10,91.34,75
11,89.45,75
12,86.67,72
13,86.0,70
14,83.16,70
15,80.05,66
16,77.94,66
17,75.64,65
18,73.96,61
19,73.22,61
20,72.03,61
21,69.85,61
22,69.41,58
23,68.08,57
24,67.63,57
25,66.86,56
26,65.73,56
27,64.9,56
28,64.29,54
29,63.67,54
30,62.67,53
31,61.85,51
32,61.44,48
33,61.01,47
34,59.37,47
35,58.65,47
36,57.4,47
37,54.95,47
38,53.99,47
39,52.94,45
40,52.17,44
41,51.38,44
42,50.85,43
43,51.33,43
44,50.65,43
45,50.14,41
46,49.67,41
47,49.03,41
48,49.45,40
49,49.47,40
50,48.33,38
51,47.26,38
52,46.1,38
53,45.83,38
54,45.25,37
55,44.73,37
56,44.36,37
57,44.44,37
58,44.4,37
59,44.38,35
60,44.34,35
61,42.73,35
62,41.82,35
63,41.91,35
64,41.34,34
65,41.18,34
66,41.06,34
67,40.67,34
68,40.68,34
69,40.46,34
70,40.05,34
71,40.38,34
72,40.11,34
73,40.74,33
74,39.96,33
75,39.93,33
76,39.46,33
77,39.58,33
78,38.85,33
79,38.75,33
80,38.39,33
81,38.64,33
82,37.88,33
83,37.67,31
84,37.22,30
85,37.19,30
86,36.7,30
87,35.81,30
88,35.6,30
89,34.6,30
90,34.45,28
91,33.94,28
92,33.48,28
93,33.47,27
94,33.76,27
95,33.58,27
96,33.55,26
97,33.08,26
98,32.52,26
99,32.11,26
100,32.16,26
101,31.63,25
102,30.94,25
103,30.97,25
104,31.18,25
105,30.7,24
106,31.08,24
107,30.94,24
108,30.08,23
109,30.1,23
110,29.98,21
111,29.47,21
112,29.02,21
113,29.14,21
114,28.62,21
115,28.43,21
116,28.08,19
117,28.21,19
118,28.74,19
119,27.93,19
120,27.67,19
121,27.19,19
122,26.34,19
123,25.39,19
124,24.41,18
125,24.36,18
126,24.53,18
127,24.44,18
128,24.61,18
129,24.51,18
130,24.01,18
131,23.34,18
132,22.98,17
133,23.73,17
134,23.71,17
135,22.74,16
136,22.46,16
137,21.77,16
138,21.77,16
139,21.97,16
140,22.65,16
141,22.66,16
142,22.91,16
143,23.31,16
144,23.63,16
145,22.91,16
146,22.45,16
147,22.84,16
148,22.07,16
149,22.17,16
150,21.85,15
151,21.47,15
152,21.23,15
153,21.06,15
154,20.78,15
155,20.68,15
156,20.42,15
157,20.87,15
158,21.47,15
159,21.57,15
160,21.09,15
161,20.78,15
162,20.81,15
163,21.01,15
164,20.69,15
165,21.64,15
166,21.34,15
167,21.11,15
168,21.39,15
169,21.66,15
170,20.93,15
171,21.14,15
172,21.34,15
173,20.81,15
174,20.43,14
175,20.32,14
176,20.33,13
177,20.58,13
178,20.75,13
179,20.78,13
180,20.6,13
181,20.73,13
182,20.02,13
183,20.1,13
184,20.37,12
185,20.22,12
186,19.54,12
187,19.18,12
188,19.04,12
189,18.82,12
190,19.13,12
191,19.03,12
192,18.87,12
193,18.8,12
194,18.51,12
195,18.24,12
196,18.09,12
197,18.25,12
198,18.12,11
199,18.6,11
200,17.82,11
201,17.67,11
202,16.84,11
203,16.91,11
204,17.11,11
205,17.23,11
206,17.13,11
207,17.61,11
208,17.27,11
209,16.88,11
210,17.11,11
211,16.93,11
212,16.64,10
213,15.63,10
214,15.48,10
215,15.04,10
216,15.4,10
217,15.1,10
218,15.89,10
219,16.49,10
220,16.82,10
221,16.82,10
222,16.26,10
223,16.02,10
224,15.37,10
225,15.74,10
226,16.08,10
227,15.7,10
228,16.58,10
229,16.73,10
230,16.62,10
231,16.5,10
232,16.57,10
233,16.12,10
234,16.75,10
235,16.97,10
236,17.04,10
237,16.53,10
238,16.67,10
239,16.49,10
240,16.07,10
241,15.83,10
242,15.61,10
243,15.43,9
244,15.4,9
245,14.81,9
246,14.88,9
247,15.65,9
248,15.65,9
249,15.77,9
250,15.84,9
251,15.57,9
252,16.96,9
253,16.47,9
254,15.96,9
255,16.17,9
256,16.16,8
257,16.35,8
258,15.6,8
259,14.8,8
260,13.74,8
261,14.17,8
262,14.96,8
263,14.79,8
264,14.76,8
265,14.56,8
266,14.4,8
267,14.53,8
268,14.02,8
269,13.35,8
270,13.28,8
271,13.53,8
272,13.72,8
273,14.18,8
274,14.99,8
275,14.47,8
276,15.15,8
277,15.09,8
278,15.51,8
279,15.28,8
280,13.86,8
281,13.82,8
282,13.89,8
283,13.97,8
284,14.05,8
285,13.8,7
286,13.56,7
287,13.76,7
288,14.13,7
289,14.06,7
290,13.36,7
291,13.08,7
292,12.87,7
293,12.61,7
294,12.78,7
295,13.21,7
296,12.77,7
297,13.12,7
298,12.81,7
299,12.65,7
300,12.34,7
301,12.44,7
302,12.71,7
303,13.3,7
304,13.79,7
305,13.84,7
306,13.62,7
307,13.56,7
308,13.65,7
309,13.04,7
310,12.57,7
311,12.85,7
312,12.6,7
313,12.69,7
314,12.84,7
315,12.7,7
316,12.94,7
317,12.63,7
318,12.93,7
319,13.78,7
320,14.48,7
321,14.43,7
322,14.46,7
323,14.65,7
324,14.7,7
325,14.66,7
326,14.05,7
327,13.81,7
328,14.15,7
329,13.33,7
330,13.71,7
331,13.86,7
332,13.86,7
333,13.97,7
334,13.61,7
335,13.19,7
336,13.39,7
337,13.49,7
338,13.36,7
339,13.34,7
340,13.1,7
341,13.29,7
342,13.92,7
343,13.5,7
344,14.22,7
345,14.45,7
346,13.38,7
347,13.19,7
348,12.86,7
349,12.56,7
350,12.81,7
351,12.94,7
352,13.4,7
353,13.28,7
354,13.72,7
355,13.91,7
356,14.32,7
357,14.19,7
358,14.74,7
359,15.26,7
360,14.45,7
361,14.17,7
362,14.55,7
363,13.75,6
364,14.48,6
365,14.43,6
366,13.2,6
367,13.01,6
368,13.24,6
369,13.87,6
370,12.94,6
371,12.69,6
372,12.88,6
373,12.83,6
374,12.34,6
375,12.31,6
376,12.25,6
377,12.62,6
378,13.27,6
379,12.88,6
380,12.66,6
381,12.43,6
382,12.45,6
383,12.61,6
384,12.37,6
385,12.09,6
386,12.95,6
387,13.21,6
388,12.6,6
389,12.76,6
390,12.99,6
391,12.84,5
392,12.18,5
393,12.2,5
394,12.3,5
395,12.0,5
396,12.25,5
397,12.18,5
398,12.06,5
399,12.43,5
400,13.11,5
401,13.07,5
402,12.71,5
403,12.88,5
404,12.14,5
405,11.62,5
406,11.69,5
407,10.77,5
408,10.94,5
409,11.64,5
410,11.58,5
411,11.54,5
412,10.82,5
413,10.46,5
414,9.71,5
415,9.85,5
416,9.51,5
417,10.05,5
418,10.09,5
419,10.48,5
420,10.91,5
421,10.19,5
422,9.74,5
423,10.41,5
424,10.74,5
425,10.87,5
426,10.29,5
427,10.7,5
428,10.77,4
429,9.96,4
430,9.43,4
431,10.15,4
432,10.95,4
433,11.58,4
434,11.06,4
435,10.97,4
436,11.2,4
437,10.87,4
438,10.58,4
439,9.58,4
440,9.66,4
441,9.67,4
442,9.63,4
443,10.12,4
444,10.61,4
445,10.47,4
446,10.73,4
447,10.93,4
448,11.15,4
449,10.49,4
450,11.11,4
451,10.41,4
452,10.74,4
453,11.18,4
454,11.23,4
455,11.76,4
456,11.61,4
457,11.64,4
458,11.39,4
459,11.23,4
460,10.56,4
461,10.62,4
462,11.11,4
463,10.81,4
464,10.57,4
465,10.81,4
466,10.29,4
467,10.58,4
468,9.49,4
469,9.05,4
470,9.46,4
471,9.9,3
472,10.77,3
473,10.49,3
474,9.79,3
475,9.49,3
476,9.92,3
477,10.3,3
478,10.17,3
479,9.86,3
480,8.81,3
481,9.01,3
482,9.34,3
483,9.03,3
484,9.01,3
485,9.19,3
486,8.87,3
487,9.27,3
488,8.74,3
489,8.88,2
490,8.7,2
491,9.07,2
492,8.94,2
493,9.39,2
494,9.7,2
495,9.21,2
496,9.45,2
497,10.38,2
498,10.61,2
499,10.44,2
500,10.26,2
501,10.09,2
502,9.84,2
503,10.06,2
504,10.18,2
505,11.6,2
506,11.05,2
507,11.22,2
508,10.3,2
509,9.57,2
510,9.65,2
511,10.56,2
512,10.5,2
513,11.04,2
514,11.52,2
515,11.29,2
516,11.49,2
517,11.66,2
518,11.79,2
519,11.38,2
520,11.2,2
521,10.41,2
522,10.12,2
523,10.39,2
524,10.9,2
525,10.15,2
526,10.6,2
527,10.42,2
528,10.56,2
529,10.0,2
530,9.74,2
531,9.59,2
532,10.08,2
533,9.92,2
534,9.95,2
535,8.98,2
536,9.75,2
537,9.51,2
538,9.78,2
539,11.01,2
540,10.23,2
541,10.65,2
542,10.07,2
543,9.86,2
544,9.45,2
545,9.55,2
546,8.85,2
547,8.81,2
548,8.94,2
549,8.24,2
550,8.63,2
551,8.85,2
552,8.92,2
553,9.07,1
554,8.95,1
555,8.96,1
556,9.11,1
557,9.32,1
558,9.73,1
559,9.23,1
560,9.34,1
561,9.54,1
562,9.24,1
563,8.65,1
564,8.29,1
565,8.57,1
566,7.94,1
567,8.43,1
568,8.75,1
569,8.44,1
570,8.37,1
571,7.94,1
572,8.15,1
573,8.01,1
574,8.01,1
575,8.2,1
576,7.96,1
577,7.94,1
578,7.95,1
579,7.26,1
580,6.59,1
581,6.6,1
582,6.94,1
583,7.27,1
584,6.91,1
585,7.1,1
586,7.56,1
587,6.87,1
588,6.54,1
589,6.59,1
590,6.56,1
591,6.45,1
592,6.01,1
593,6.16,1
594,6.38,1
595,6.48,1
596,6.48,1
597,6.6,1
598,7.0,1
599,7.06,1
600,7.09,1
601,6.95,1
602,7.3,1
603,7.39,1
604,7.52,1
605,7.48,1
606,7.26,1
607,7.17,1
608,7.33,1
609,7.02,1
610,7.49,1
611,7.93,1
612,7.5,1
613,7.09,1
614,6.56,1
615,6.73,1
616,7.5,1
617,7.96,1
618,7.83,1
619,7.66,1
620,7.43,1
621,7.97,1
622,8.15,1
623,8.43,1
624,7.93,1
625,8.28,1
626,9.42,1
627,9.12,1
628,9.0,1
629,8.89,1
630,8.59,1
631,9.16,1
632,9.35,1
633,8.95,1
634,8.46,1
635,7.57,1
636,6.98,1
637,7.19,1
638,7.31,1
639,7.62,1
640,7.04,1
641,8.0,1
642,8.11,1
643,7.57,1
644,7.2,1
645,7.56,1
646,7.07,1
647,6.98,1
648,7.18,1
649,7.54,1
650,7.88,1
651,8.3,1
652,7.91,1
653,7.46,1
654,7.39,1
655,6.88,1
656,6.66,1
657,6.86,1
658,6.84,1
659,6.87,1
660,6.62,1
661,6.84,1
662,7.15,1
663,7.46,1
664,7.88,1
665,7.38,1
666,7.3,1
667,7.5,1
668,7.73,1
669,7.66,1
670,7.86,1
671,7.27,1
672,7.2,1
673,7.11,1
674,7.46,1
675,6.71,1
676,6.82,1
677,7.04,1
678,7.86,1
679,8.7,1
680,8.81,1
681,8.33,1
682,7.64,1
683,7.65,1
684,7.54,1
685,6.52,1
686,7.16,1
687,7.56,1
688,7.45,1
689,7.57,1
690,7.68,1
691,7.96,1
692,7.54,1
693,7.3,1
694,7.24,1
695,7.48,1
696,7.69,1
697,7.89,1
698,7.71,1
699,7.44,1
700,7.8,1
701,7.86,1
702,7.3,1
703,7.99,1
704,8.12,1
705,8.54,1
706,8.68,1
707,8.29,1
708,7.11,1
709,7.09,1
710,6.92,1
711,7.18,1
712,7.55,1
713,6.96,1
714,7.18,1
715,7.65,1
716,6.78,1
717,6.83,1
718,5.99,1
719,6.56,1
720,6.77,1
721,6.86,1
722,7.31,1
723,7.63,1
724,7.49,1
725,7.7,1
726,7.76,1
727,7.33,1
728,7.32,1
729,7.27,1
730,7.58,1
731,7.89,1
732,8.13,1
733,7.59,1
734,7.65,1
735,7.31,1
736,7.87,1
737,8.31,1
738,8.13,1
739,8.48,1
740,7.92,1
741,8.08,1
742,7.88,1
743,7.64,1
744,7.98,1
745,8.21,1
746,8.66,1
747,8.49,1
748,7.58,1
749,8.35,1
750,8.15,1
751,7.8,1
752,7.23,1
753,7.12,1
754,6.46,1
755,7.1,1
756,7.4,1
757,7.72,1
758,7.5,1
759,7.3,1
760,7.58,1
761,7.63,1
762,8.16,1
763,7.99,1
764,7.7,1
765,7.09,1
766,6.71,1
767,6.07,1
768,5.91,1
769,6.14,1
770,6.35,1
771,7.08,1
772,6.57,1
773,6.34,1
774,6.71,1
775,6.52,1
776,6.31,1
777,6.73,1
778,7.06,1
779,7.06,1
780,7.41,1
781,6.62,1
782,6.09,1
783,6.19,1
784,6.69,1
785,6.51,1
786,6.35,1
787,6.44,1
788,7.07,1
789,7.33,1
790,8.33,1
791,7.77,1
792,7.68,1
793,7.48,1
794,7.37,1
795,7.06,1
796,7.05,1
797,6.79,1
798,6.34,1
799,6.6,1
800,7.31,1
801,7.23,1
802,7.5,1
803,7.33,1
804,6.84,1
805,7.86,1
806,7.67,1
807,7.12,1
808,7.75,1
809,8.45,1
810,8.51,1
811,8.77,1
812,8.81,1
813,8.7,1
814,9.56,1
815,8.84,1
816,8.96,1
817,8.74,1
818,8.27,1
819,8.31,1
820,7.84,1
821,7.17,1
822,7.7,1
823,8.03,1
824,8.15,1
825,7.88,1
826,7.73,1
827,8.12,1
828,8.52,1
829,8.46,1
830,8.06,1
831,7.73,1
832,7.36,1
833,7.26,1
834,7.48,1
835,7.36,1
836,7.13,1
837,7.56,1
838,7.94,1
839,8.16,1
840,8.17,1
841,8.49,1
842,7.46,1
843,7.41,1
844,7.6,1
845,7.07,1
846,7.18,1
847,6.82,1
848,6.64,1
849,7.8,1
850,8.13,1
851,8.15,1
852,7.87,1
853,8.19,1
854,8.49,1
855,8.89,1
856,8.6,1
857,8.41,1
858,8.36,1
859,7.72,1
860,8.03,1
861,7.65,1
862,8.38,1
863,8.2,1
864,8.07,1
865,8.08,1
866,7.79,1
867,8.38,1
868,8.67,1
869,8.66,1
870,8.52,1
871,8.03,1
872,8.79,1
873,8.42,1
874,8.56,1
875,8.54,1
876,8.54,1
877,9.03,1
878,8.39,1
879,8.49,1
880,8.72,1
881,8.13,1
882,7.86,1
883,8.78,1
884,9.35,1
885,8.57,1
886,9.13,1
887,10.01,1
888,8.96,1
889,9.32,1
890,9.34,1
891,9.31,1
892,9.3,1
893,8.32,1
894,7.8,1
895,8.27,1
896,8.16,1
897,7.4,1
898,6.72,1
899,6.56,1
900,6.93,1
901,6.9,1
902,7.03,1
903,7.0,1
904,7.2,1
905,7.49,1
906,7.37,1
907,7.46,1
908,7.29,1
909,6.97,1
910,6.78,1
911,6.42,1
912,6.72,1
913,6.99,1
914,7.73,1
915,7.72,1
916,7.73,1
917,7.54,1
918,7.72,1
919,7.51,1
920,7.81,1
921,8.22,1
922,7.89,1
923,8.11,1
924,7.74,1
925,7.47,1
926,6.96,1
927,6.81,1
928,6.77,1
929,6.51,1
930,6.18,1
931,6.33,1
932,6.79,1
933,7.23,1
934,7.64,1
935,8.01,1
936,7.73,1
937,7.59,1
938,7.32,1
939,6.32,1
940,6.81,1
941,7.59,1
942,7.35,1
943,7.25,1
944,6.86,1
945,7.36,1
946,6.54,1
947,7.44,1
948,7.32,1
949,7.6,1
950,6.78,1
951,6.75,1
952,6.43,1
953,7.04,1
954,7.02,1
955,7.11,1
956,7.0,1
957,7.01,1
958,7.3,1
959,7.25,1
960,7.08,1
961,7.53,1
962,7.79,1
963,8.79,1
964,8.65,1
965,8.7,1
966,7.67,1
967,7.93,1
968,8.28,1
969,8.51,1
970,8.51,1
971,8.67,1
972,8.38,1
973,8.28,1
974,8.47,1
975,8.53,1
976,8.16,1
977,7.49,1
978,7.29,1
979,7.35,1
980,7.03,1
981,6.88,1
982,6.86,1
983,6.44,1
984,6.94,1
985,7.33,1
986,7.55,1
987,7.76,1
988,7.31,1
989,7.05,1
990,7.11,1
991,7.77,1
992,7.73,1
993,7.18,1
994,6.73,1
995,7.18,1
996,6.81,1
997,6.95,1
998,7.31,1
999,7.36,1
